letting n =  10
letting blocks =  [[1, 2], [1, 3], [1, 5], [1, 6], [1, 7], [1, 10], [2, 2], [3, 6], [4, 8], [4, 9], [5, 8], [6, 4], [6, 5], [6, 7], [6, 9], [7, 3], [7, 5], [8, 1], [8, 9], [9, 2], [9, 4], [9, 6], [10, 4], [10, 6], [10, 8], [10, 9]]
